27
0 1 2 3 4 5 6 3 3 7 3 8 5 9 10 7 5 11 12 12 13 14 9 8 6 15 13 11 9 15 5 14 15 0 0 6 16 13 17 10 8 11 18 17 14 13 4 19 20 18 4 0 20 11 21 10 16 17 1 22 2 23 23 17 21 14 3 24 25 25 6 22 18 11 26 2 1 25 9 26 7 21 23 18 0 22 20 24 1 20 16 2 12 14 10 10 8 4 1 25 
